==> CUTFACTOR            = 1
==> MAXTIME              = 3600
==> OUTPUTLOG            = 1
==> TREECOVERCUTS        = 0
FICO Xpress v8.5.9, solve started 23:55:29, Jun 8, 2019
Maximizing MILP Seating model
Original problem has:
       230 rows          300 cols         7440 elements       300 globals
Presolved problem has:
       103 rows          204 cols         2431 elements       198 globals
LP relaxation tightened
Will try to keep branch and bound tree memory usage below 7.2GB
 *** Heuristic solution found:    22.000000      Time: 0 ***
Starting concurrent solve with dual

 Concurrent-Solve,   0s
            Dual        
    objective   dual inf
 D  102.00000   .0000000
------- optimal --------
Concurrent statistics:
      Dual: 34 simplex iterations, 0.00s
Optimal solution found
 
   Its         Obj Value      S   Ninf  Nneg   Sum Dual Inf  Time
    34        102.000000      D      0     0        .000000     0
Dual solved problem
  34 simplex iterations in 0s

Final objective                         : 1.020000000000000e+02
  Max primal violation      (abs / rel) : 1.110e-16 / 9.869e-17
  Max dual violation        (abs / rel) :       0.0 /       0.0
  Max complementarity viol. (abs / rel) :       0.0 /       0.0
All values within tolerances

Starting root cutting & heuristics
 
 Its Type    BestSoln    BestBound   Sols    Add    Del     Gap     GInf   Time
   1  K     22.000000   102.000000      1     38      0   78.43%      29      0
b           29.000000   102.000000      2                 71.57%       0      0
   2  K     29.000000   102.000000      2     42     26   71.57%      36      0
   3  K     29.000000   102.000000      2     35     39   71.57%      36      0
   4  K     29.000000   102.000000      2     49     28   71.57%      45      0
   5  K     29.000000   102.000000      2     39     47   71.57%      46      0
   6  K     29.000000   102.000000      2     49     36   71.57%      53      0
   7  K     29.000000   102.000000      2     38     41   71.57%      53      0
   8  K     29.000000   102.000000      2     38     40   71.57%      43      0
   9  K     29.000000   102.000000      2     47     38   71.57%      53      0
  10  K     29.000000   102.000000      2     30     45   71.57%      52      0
  11  K     29.000000   102.000000      2     36     34   71.57%      43      0
  12  K     29.000000   102.000000      2     46     39   71.57%      48      0
  13  K     29.000000   102.000000      2     48     38   71.57%      62      0
  14  K     29.000000   102.000000      2     49     43   71.57%      67      0
  15  K     29.000000   102.000000      2     49     48   71.57%      53      0
  16  K     29.000000   102.000000      2     43     60   71.57%      50      0
  17  K     29.000000   102.000000      2     49     52   71.57%      47      0
  18  K     29.000000   102.000000      2     49     48   71.57%      46      0
  19  K     29.000000   102.000000      2     43     49   71.57%      49      0
b           30.000000   102.000000      3                 70.59%       0      0
  20  K     30.000000   102.000000      3     48     81   70.59%      48      0
  21  G     30.000000   102.000000      3     19      1   70.59%      56      0
  22  G     30.000000   102.000000      3     40     70   70.59%      44      0
Heuristic search started
Heuristic search stopped
M           33.000000   102.000000      4                 67.65%       0      0
M           35.000000   102.000000      5                 65.69%       0      0
M           38.000000   102.000000      6                 62.75%       0      0
M           41.000000   102.000000      7                 59.80%       0      1
 
Cuts in the matrix         : 21
Cut elements in the matrix : 470
 
Starting tree search.
Deterministic mode with up to 4 running threads and up to 8 tasks.
 
    Node     BestSoln    BestBound   Sols Active  Depth     Gap     GInf   Time
       1    41.000000   102.000000      7      2      1   59.80%      40      1
       2    41.000000   102.000000      7      2      3   59.80%      33      1
       3    41.000000   102.000000      7      2      4   59.80%      32      1
       4    41.000000   102.000000      7      2      5   59.80%      33      1
       5    41.000000   102.000000      7      5      3   59.80%      39      1
       6    41.000000   102.000000      7      5      4   59.80%      31      1
       7    41.000000   102.000000      7      5      4   59.80%      20      1
       8    41.000000   102.000000      7      5      5   59.80%      17      1
       9    41.000000   102.000000      7      8      5   59.80%      31      1
      10    41.000000   102.000000      7      8      6   59.80%      28      1
      35    41.000000   102.000000      7     17     19   59.80%       6      1
      56    41.000000   102.000000      7     17     22   59.80%      24      1
      76    41.000000   102.000000      7     28     21   59.80%      12      1
      98    41.000000   102.000000      7     28     21   59.80%      29      1
     125    41.000000   102.000000      7     28     25   59.80%      24      1
     242    41.000000   102.000000      7     48     24   59.80%      24      1
     348    41.000000   102.000000      7     48     25   59.80%      21      1
a    443    46.000000   102.000000      8     48     19   54.90%       0      1
     455    46.000000   102.000000      8     74     11   54.90%      13      1
B&B tree size: 0.5MB total
 
    Node     BestSoln    BestBound   Sols Active  Depth     Gap     GInf   Time
     583    46.000000   102.000000      8     93     29   54.90%      26      1
     692    46.000000   102.000000      8    118     18   54.90%      22      1
     795    46.000000   102.000000      8    118     21   54.90%      28      1
     904    46.000000   102.000000      8    197     20   54.90%      27      1
    1018    46.000000   102.000000      8    227     11   54.90%      20      1
    1155    46.000000   102.000000      8    227     33   54.90%       6      1
a   1213    49.000000   102.000000      9    227     19   51.96%       0      1
    1270    49.000000   102.000000      9    227     20   51.96%      14      1
    1380    49.000000   102.000000      9    227     23   51.96%      10      1
    1492    49.000000   102.000000      9    227     21   51.96%      22      1
    1599    49.000000   102.000000      9    244     20   51.96%      14      1
    1727    49.000000   102.000000      9    299     24   51.96%      17      1
    1843    49.000000   102.000000      9    299     21   51.96%      18      1
a   1945    50.000000   102.000000     10    341     32   50.98%       0      1
    1949    50.000000   102.000000     10    341     32   50.98%       3      1
    2052    50.000000   102.000000     10    341     25   50.98%      17      1
    2172    50.000000   102.000000     10    371     18   50.98%      35      1
    2275    50.000000   102.000000     10    441     29   50.98%      16      1
    2396    50.000000   102.000000     10    487     26   50.98%       7      1
    2510    50.000000   102.000000     10    487     42   50.98%       3      1
B&B tree size: 1.4MB total
 
    Node     BestSoln    BestBound   Sols Active  Depth     Gap     GInf   Time
    2610    50.000000   102.000000     10    487     17   50.98%      24      1
    2710    50.000000   102.000000     10    487     21   50.98%      23      1
    2819    50.000000   102.000000     10    644     17   50.98%      23      1
    2929    50.000000   102.000000     10    644     23   50.98%      20      1
    3057    50.000000   102.000000     10    644     21   50.98%       9      1
    3168    50.000000   102.000000     10    644     21   50.98%      32      1
    3283    50.000000   102.000000     10    644     29   50.98%      22      1
    3384    50.000000   102.000000     10    644     23   50.98%      27      1
a   3434    52.000000   102.000000     11    644     28   49.02%       0      1
a   3465    58.000000   102.000000     12    644     29   43.14%       0      1
    3505    58.000000   102.000000     12    644     26   43.14%      20      1
    3622    58.000000   102.000000     12    644     23   43.14%      17      1
    3724    58.000000   102.000000     12    644     25   43.14%      16      1
    3842    58.000000   102.000000     12    644     21   43.14%      23      1
    3964    58.000000   102.000000     12    604      1   43.14%       1      1
    4071    58.000000   102.000000     12    604     30   43.14%      11      1
    4195    58.000000   102.000000     12    604     25   43.14%      16      1
    4301    58.000000   102.000000     12    604     34   43.14%       7      1
    4407    58.000000   102.000000     12    604     21   43.14%      21      1
    4510    58.000000   102.000000     12    604     22   43.14%      20      2
B&B tree size: 1.8MB total
 
    Node     BestSoln    BestBound   Sols Active  Depth     Gap     GInf   Time
    4625    58.000000   102.000000     12    604     22   43.14%      25      2
    4754    58.000000   102.000000     12    604     16   43.14%      21      2
    4857    58.000000   102.000000     12    604     21   43.14%      29      2
    4980    58.000000   102.000000     12    604     18   43.14%      29      2
    5105    58.000000   102.000000     12    604     20   43.14%      15      2
    5227    58.000000   102.000000     12    664     16   43.14%      24      2
    5332    58.000000   102.000000     12    664     20   43.14%      20      2
    5439    58.000000   102.000000     12    664     19   43.14%      22      2
    5548    58.000000   101.664502     12    825     27   42.95%      10      2
    5651    58.000000   101.664502     12    949     33   42.95%       6      2
    5772    58.000000   101.664502     12   1055     28   42.95%      20      2
    5880    58.000000   101.664502     12   1055     21   42.95%      25      2
    6011    58.000000   101.664502     12   1055     20   42.95%      24      2
    6116    58.000000   101.664502     12   1055     23   42.95%      31      2
    6240    58.000000   101.664502     12   1194     23   42.95%      28      2
    6344    58.000000   101.664502     12   1340     24   42.95%      17      2
    6452    58.000000   101.664502     12   1550     23   42.95%      32      2
    6564    58.000000   101.664502     12   1550     24   42.95%      21      2
    6680    58.000000   101.664502     12   1550     19   42.95%      28      2
    6789    58.000000   101.664502     12   1550     21   42.95%      16      2
B&B tree size: 2.8MB total
 
    Node     BestSoln    BestBound   Sols Active  Depth     Gap     GInf   Time
    6907    58.000000   101.664502     12   1550     25   42.95%      15      2
    7024    58.000000   101.664502     12   1550     24   42.95%       3      2
    7159    58.000000   101.664502     12   1550     18   42.95%      31      2
    7279    58.000000   101.664502     12   1550     19   42.95%      32      2
    7403    58.000000   101.664502     12   1550     24   42.95%      32      2
    7523    58.000000   101.664502     12   1550     20   42.95%      17      2
    7644    58.000000   101.664502     12   1550     27   42.95%      13      2
    7757    58.000000   101.664502     12   1550     18   42.95%      27      2
    7866    58.000000   101.664502     12   1550     19   42.95%      31      2
a   7884    60.000000   101.664502     13   1550     23   40.98%       0      2
    7970    60.000000   101.664502     13   1559     22   40.98%      22      2
    8095    60.000000   101.664502     13   1559     26   40.98%      18      2
    8197    60.000000   101.664502     13   1559     24   40.98%       5      2
    8311    60.000000   101.664502     13   1559     26   40.98%      36      2
    8450    60.000000   101.664502     13   1654     15   40.98%      16      2
    8550    60.000000   101.664502     13   1731     26   40.98%      19      2
    8653    60.000000   101.664502     13   1731     22   40.98%      18      2
    8765    60.000000   101.664502     13   1731     25   40.98%      25      2
    8866    60.000000   101.664502     13   1731     20   40.98%      25      2
    8986    60.000000    98.888889     13   1859     24   39.33%      30      2
B&B tree size: 3.6MB total
 
    Node     BestSoln    BestBound   Sols Active  Depth     Gap     GInf   Time
    9104    60.000000    98.888889     13   1859     28   39.33%      24      2
    9219    60.000000    98.888889     13   1859     22   39.33%      33      2
    9335    60.000000    97.806001     13   2073     29   38.65%      18      2
    9446    60.000000    97.116959     13   2252     21   38.22%      18      2
    9547    60.000000    97.116959     13   2252     23   38.22%      33      2
    9669    60.000000    97.116959     13   2252     20   38.22%      24      2
    9772    60.000000    97.116959     13   2252     20   38.22%      32      2
    9904    60.000000    97.116959     13   2252     22   38.22%      18      2
   10020    60.000000    97.116959     13   2252     23   38.22%      27      2
   11022    60.000000    97.116959     13   2442     19   38.22%      24      3
   12024    60.000000    90.683232     13   2745      1   33.84%       1      3
   13048    60.000000    89.900000     13   2953     21   33.26%      30      3
   14063    60.000000    88.271333     13   3129     20   32.03%      13      3
   15075    60.000000    87.939112     13   3381     21   31.77%      15      3
   16076    60.000000    87.939112     13   3506     23   31.77%      21      4
   17083    60.000000    87.939112     13   3670     18   31.77%      28      4
   18097    60.000000    86.247076     13   3835     23   30.43%      21      4
   19118    60.000000    85.542779     13   3961     23   29.86%      30      4
   20119    60.000000    85.080431     13   4092     20   29.48%      31      4
   21137    60.000000    84.575039     13   4166     17   29.06%      24      4
B&B tree size: 7.2MB total
 
    Node     BestSoln    BestBound   Sols Active  Depth     Gap     GInf   Time
   22162    60.000000    83.801170     13   4310     23   28.40%      34      5
   23204    60.000000    83.515152     13   4437     25   28.16%      14      5
   24222    60.000000    83.040936     13   4500     33   27.75%      26      5
   25227    60.000000    83.000000     13   4722     22   27.71%      30      5
   26241    60.000000    82.860099     13   4796     24   27.59%      20      5
   27253    60.000000    82.145609     13   4852     19   26.96%      26      6
   28260    60.000000    82.000000     13   4948     23   26.83%      34      6
   29286    60.000000    82.000000     13   5099     14   26.83%      24      6
   30306    60.000000    82.000000     13   5171     23   26.83%      25      6
   31306    60.000000    81.336257     13   5285      1   26.23%       1      6
   32320    60.000000    81.000000     13   5321     30   25.93%      14      6
   33320    60.000000    80.564327     13   5423     21   25.53%      29      6
   34322    60.000000    80.444444     13   5429     16   25.41%      24      7
   35342    60.000000    80.096004     13   5485     23   25.09%      22      7
   36349    60.000000    79.884799     13   5475     21   24.89%      34      7
   37367    60.000000    79.551170     13   5497     20   24.58%      30      7
   38372    60.000000    79.108165     13   5571     16   24.15%      34      7
   39391    60.000000    78.824597     13   5571     21   23.88%      30      8
   40394    60.000000    78.418194     13   5587     29   23.49%      12      8
   41424    60.000000    78.271345     13   5625     20   23.34%      21      8
B&B tree size: 10MB total
 
    Node     BestSoln    BestBound   Sols Active  Depth     Gap     GInf   Time
   42452    60.000000    78.000000     13   5664     30   23.08%      18      8
   43474    60.000000    78.000000     13   5666     24   23.08%      30      8
   44474    60.000000    77.290024     13   5664     20   22.37%      25      8
   45477    60.000000    77.000000     13   5657     29   22.08%      26      9
   46505    60.000000    77.000000     13   5687     18   22.08%      29      9
   47525    60.000000    76.856982     13   5685     28   21.93%      26      9
   48527    60.000000    76.430526     13   5668     23   21.50%      14      9
   49551    60.000000    76.014066     13   5632     29   21.07%      31      9
   50566    60.000000    76.014066     13   5647     18   21.07%      17      9
   51580    60.000000    76.000000     13   5694     19   21.05%      19     10
   52583    60.000000    75.897436     13   5702     23   20.95%      32     10
   53587    60.000000    75.163518     13   5640     11   20.17%      20     10
   54589    60.000000    75.000000     13   5584     12   20.00%      27     10
   55592    60.000000    75.000000     13   5540     24   20.00%      33     10
   56619    60.000000    74.583333     13   5489     20   19.55%      28     11
   57619    60.000000    74.333333     13   5430     26   19.28%      20     11
   58637    60.000000    74.048913     13   5345     22   18.97%      27     11
   59665    60.000000    74.000000     13   5406     23   18.92%      15     11
   60666    60.000000    74.000000     13   5404     18   18.92%      31     11
   61667    60.000000    73.707212     13   5356     24   18.60%      15     11
B&B tree size: 10MB total
 
    Node     BestSoln    BestBound   Sols Active  Depth     Gap     GInf   Time
   62676    60.000000    73.419799     13   5256     24   18.28%      15     12
   63682    60.000000    73.119883     13   5141     18   17.94%      31     12
   64696    60.000000    73.000000     13   5125     16   17.81%      17     12
   65696    60.000000    73.000000     13   5114     20   17.81%      29     12
   66707    60.000000    73.000000     13   5134     33   17.81%      23     12
   67709    60.000000    72.949495     13   5048     18   17.75%      33     13
   68710    60.000000    72.213675     13   4921     18   16.91%      32     13
   69712    60.000000    72.000000     13   4802     19   16.67%      29     13
   70717    60.000000    71.719044     13   4688     27   16.34%      14     13
   71730    60.000000    71.258246     13   4558     24   15.80%      12     13
   72740    60.000000    71.000000     13   4453     21   15.49%      30     13
   73745    60.000000    71.000000     13   4369     20   15.49%      32     14
   74749    60.000000    70.403509     13   4184     22   14.78%      33     14
   75777    60.000000    70.000000     13   4032     26   14.29%      16     14
   76778    60.000000    69.944444     13   3918     17   14.22%      25     14
   77778    60.000000    69.219298     13   3703     21   13.32%      30     14
   78780    60.000000    69.000000     13   3597     13   13.04%      27     15
   79783    60.000000    69.000000     13   3542     24   13.04%      24     15
   80785    60.000000    69.000000     13   3295     25   13.04%      15     15
   81786    60.000000    68.000000     13   3105     25   11.76%      15     15
B&B tree size: 9.6MB total
 
    Node     BestSoln    BestBound   Sols Active  Depth     Gap     GInf   Time
   82786    60.000000    67.801170     13   2930     20   11.51%      22     15
   83786    60.000000    67.008130     13   2554     13   10.46%      29     16
   84790    60.000000    67.000000     13   2448     19   10.45%      31     16
   85799    60.000000    66.147870     13   2046     29    9.29%      30     16
   86799    60.000000    65.358173     13   1620     22    8.20%      22     16
   87813    60.000000    64.000000     13   1104     24    6.25%      12     17
   88826    60.000000    63.000000     13    620     23    4.76%      18     17
   89826    60.000000    62.000000     13    109     26    3.23%      21     17
 *** Search completed ***     Time:    17 Nodes:      90085
Number of integer feasible solutions found is 13
Best integer solution found is    60.000000
Best bound is    60.000000
Uncrunching matrix
